/*********************************************
 * OPL 12.6.0.0 Data
 * Author: Adrian Rodriguez Bazaga, Pau Rodriguez Esmerats
 * Creation Date: 10/12/2017 at 07:27:24
 *********************************************/

maxConsec=3;
maxPresence=8;
maxHours=5;
minHours=2;
hours=12;
demand= [11 20 14 14 19 23 24 17 12 7 11 3  ];
nNurses=64;
